16 32
1 2 1
1 5 2
2 3 2
2 6 1
3 4 4
3 7 5
4 8 3
5 6 1
5 9 4
6 7 2
6 10 5
7 8 1
7 11 5
8 12 5
9 10 5
9 13 1
10 11 1
10 14 3
11 12 1
11 15 1
12 16 5
13 14 5
14 15 5
15 16 1
1 13 5
2 14 5
3 15 1
4 16 5
1 4 3
5 8 4
9 12 2
13 16 4
